(set-logic QF_UF)
(declare-fun A0 () Bool)
(declare-fun A1 () Bool)
(declare-fun A2 () Bool)
(declare-fun A3 () Bool)
(declare-fun A4 () Bool)
(declare-fun A5 () Bool)
(declare-fun A6 () Bool)
(declare-fun A7 () Bool)
(declare-fun A8 () Bool)
(declare-fun A9 () Bool)
(declare-fun A10 () Bool)
(declare-fun A11 () Bool)
(declare-fun A12 () Bool)
(declare-fun A13 () Bool)
(declare-fun A14 () Bool)
(declare-fun A15 () Bool)
(declare-fun A16 () Bool)
(declare-fun A17 () Bool)
(declare-fun A18 () Bool)
(declare-fun A19 () Bool)
(declare-fun A20 () Bool)
(declare-fun A21 () Bool)
(declare-fun A22 () Bool)
(declare-fun A23 () Bool)
(declare-fun A24 () Bool)
(assert (let ((.def_0 (and A1 A24))) (let ((.def_1 (not .def_0))) (let ((.def_2 (not A16))) (let ((.def_3 (not A21))) (let ((.def_4 (or .def_3 .def_2))) (let ((.def_5 (not .def_4))) (let ((.def_6 (and .def_5 .def_1))) (let ((.def_7 (not A22))) (let ((.def_8 (and .def_7 .def_2))) (let ((.def_9 (not .def_8))) (let ((.def_10 (or A22 A13))) (let ((.def_11 (and .def_10 .def_9))) (let ((.def_12 (not .def_11))) (let ((.def_13 (and .def_12 .def_6))) (let ((.def_14 (not .def_13))) (let ((.def_15 (not A20))) (let ((.def_16 (or A19 .def_15))) (let ((.def_17 (not .def_16))) (let ((.def_18 (and A10 A23))) (let ((.def_19 (not .def_18))) (let ((.def_20 (= .def_19 .def_17))) (let ((.def_21 (not A1))) (let ((.def_22 (= A9 .def_21))) (let ((.def_23 (not A23))) (let ((.def_24 (not A7))) (let ((.def_25 (and .def_24 .def_23))) (let ((.def_26 (= .def_25 .def_22))) (let ((.def_27 (and .def_26 .def_20))) (let ((.def_28 (not .def_27))) (let ((.def_29 (or .def_28 .def_14))) (let ((.def_30 (not .def_29))) (let ((.def_31 (not A12))) (let ((.def_32 (and A0 .def_31))) (let ((.def_33 (not .def_32))) (let ((.def_34 (and A6 A8))) (let ((.def_35 (not .def_34))) (let ((.def_36 (or .def_35 .def_33))) (let ((.def_37 (not .def_36))) (let ((.def_38 (not A17))) (let ((.def_39 (not A2))) (let ((.def_40 (or .def_39 .def_38))) (let ((.def_41 (not A11))) (let ((.def_42 (and .def_41 .def_15))) (let ((.def_43 (and .def_42 .def_40))) (let ((.def_44 (or .def_43 .def_37))) (let ((.def_45 (not .def_44))) (let ((.def_46 (or A2 A15))) (let ((.def_47 (not .def_46))) (let ((.def_48 (not A18))) (let ((.def_49 (and .def_39 .def_48))) (let ((.def_50 (not .def_49))) (let ((.def_51 (and .def_50 .def_47))) (let ((.def_52 (and .def_21 .def_48))) (let ((.def_53 (not A8))) (let ((.def_54 (or A3 .def_53))) (let ((.def_55 (or .def_54 .def_52))) (let ((.def_56 (and .def_55 .def_51))) (let ((.def_57 (and .def_56 .def_45))) (let ((.def_58 (or .def_57 .def_30))) (let ((.def_59 (or A10 .def_7))) (let ((.def_60 (not .def_59))) (let ((.def_61 (not A10))) (let ((.def_62 (or A19 .def_61))) (let ((.def_63 (or .def_62 .def_60))) (let ((.def_64 (not .def_63))) (let ((.def_65 (not A24))) (let ((.def_66 (or .def_65 .def_38))) (let ((.def_67 (not A5))) (let ((.def_68 (and .def_2 .def_67))) (let ((.def_69 (and .def_68 .def_66))) (let ((.def_70 (not .def_69))) (let ((.def_71 (= .def_70 .def_64))) (let ((.def_72 (not .def_71))) (let ((.def_73 (and .def_65 .def_24))) (let ((.def_74 (not .def_73))) (let ((.def_75 (not A4))) (let ((.def_76 (and A14 .def_75))) (let ((.def_77 (not .def_76))) (let ((.def_78 (and .def_77 .def_74))) (let ((.def_79 (not .def_78))) (let ((.def_80 (and A17 .def_53))) (let ((.def_81 (not .def_80))) (let ((.def_82 (not A13))) (let ((.def_83 (or .def_82 A0))) (let ((.def_84 (and .def_83 .def_81))) (let ((.def_85 (not .def_84))) (let ((.def_86 (and .def_85 .def_79))) (let ((.def_87 (or .def_86 .def_72))) (let ((.def_88 (or .def_41 A6))) (let ((.def_89 (not A6))) (let ((.def_90 (not A9))) (let ((.def_91 (or .def_90 .def_89))) (let ((.def_92 (not .def_91))) (let ((.def_93 (or .def_92 .def_88))) (let ((.def_94 (or A14 .def_31))) (let ((.def_95 (not .def_94))) (let ((.def_96 (not A3))) (let ((.def_97 (and A8 .def_96))) (let ((.def_98 (and .def_97 .def_95))) (let ((.def_99 (not .def_98))) (let ((.def_100 (and .def_99 .def_93))) (let ((.def_101 (= A21 .def_38))) (let ((.def_102 (and A10 .def_39))) (let ((.def_103 (or .def_102 .def_101))) (let ((.def_104 (not A15))) (let ((.def_105 (and A19 .def_104))) (let ((.def_106 (not .def_105))) (let ((.def_107 (or .def_31 A16))) (let ((.def_108 (or .def_107 .def_106))) (let ((.def_109 (not .def_108))) (let ((.def_110 (or .def_109 .def_103))) (let ((.def_111 (or .def_110 .def_100))) (let ((.def_112 (and .def_111 .def_87))) (let ((.def_113 (not .def_112))) (let ((.def_114 (= .def_113 .def_58))) .def_114))))))))))))))))))))))))))))))))))))))))))))))))))))))))))))))))))))))))))))))))))))))))))))))))))))))))))))))))))))
(check-sat)
